c Output_time 26.03.2020 18:13:09_+0100 1585242789713793258
c ** Program information **
c program_name                          "QBRG_debug"
c version                               "0.3.20"
c date                                  "25.3.2020"
c gid_id                                "673970833836058123f633335630c185360d632e"
c author                                "Oliver Kullmann"
c url                                   "https://github.com/OKullmann/oklibrary/blob/master/Satisfiability/Transformers/Generators/Random/QBRG.cpp"
c ** Machine information **
c machine_name                          "chyna-Lenovo-G50-70"
c bogomips                              3791.08
c ** Compilation information **
c compiler_version                      "g++ 7.5.0"
c compilation_date                      "Mar_26_2020 11:16:30"
c compilation_options                   "--std=c++17 -pedantic -fmax-errors=5 -Wall -Wextra -g -D_GLIBCXX_DEBUG"
c NDEBUG                                0
c OPTIMIZE                              0
c ** Parameters **
c command-line                          "./QBRG_debug" "e40 a40 40" "138*1,1|2-2,1|3-3,1" "" "1,t" ""
c output                                "QuBlRaGe_120_138_1585242789709576215.qdimacs"
c options                               "filtered,renamed"
c num_quantifier_blocks                 3
c  quantifier_blocks                    1:e1-40 2:a41-80 3:e81-120
c num_clause-blocks                     1
c  clause-blocks                        138 * {1-40,1,1/2} | {41-80,1,1/2} | {81-120,1,1/2}
c num_e-seeds                           30+2=32
c  e-seeds                              1 0 1 0 4 120 2 40 1 40 0 40 1 138 3 1 1 1 1 2 2 2 1 1 2 3 3 1 1 2 1 1585242789709575799
p cnf 114 138
e 1 2 3 4 5 6 7 8 9 10 11 12 13 14 15 16 17 18 19 20 21 22 23 24 25 26 27 28 29 30 31 32 33 34 35 36 37 38 0
a 39 40 41 42 43 44 45 46 47 48 49 50 51 52 53 54 55 56 57 58 59 60 61 62 63 64 65 66 67 68 69 70 71 72 73 74 75 76 77 0
e 78 79 80 81 82 83 84 85 86 87 88 89 90 91 92 93 94 95 96 97 98 99 100 101 102 103 104 105 106 107 108 109 110 111 112 113 114 0
15 45 -78 0
21 46 78 0
-24 64 78 0
-34 69 78 0
-26 73 78 0
-1 55 -79 0
-10 -64 -79 0
-35 -64 -79 0
-38 46 79 0
-9 49 79 0
-28 -43 -80 0
-4 -41 80 0
-36 46 80 0
7 -55 80 0
-30 -43 -81 0
-17 -46 -81 0
36 -55 -81 0
15 -42 81 0
-25 -46 81 0
16 -55 81 0
14 57 81 0
-15 70 -82 0
-28 -43 82 0
-1 -77 82 0
-35 68 -83 0
-38 52 83 0
-38 58 83 0
26 61 83 0
-34 68 83 0
-3 -72 -84 0
-27 -64 84 0
28 53 -85 0
24 40 85 0
28 50 85 0
-22 -60 85 0
-4 73 85 0
-34 -48 -86 0
-3 60 -86 0
-5 -65 -86 0
-16 -42 86 0
8 41 -87 0
3 -56 -87 0
18 59 -87 0
-37 59 -87 0
-5 -73 -87 0
-11 -52 87 0
28 72 87 0
6 74 87 0
-2 52 -88 0
6 -65 -88 0
-8 -44 88 0
7 58 88 0
-6 -71 88 0
15 47 -89 0
22 59 -89 0
38 48 89 0
23 67 89 0
11 40 -90 0
-16 -45 -90 0
35 -54 -90 0
36 -64 -90 0
15 41 90 0
-28 44 90 0
-24 54 90 0
11 -57 90 0
-14 -41 -91 0
18 -47 91 0
6 65 92 0
17 40 -93 0
-3 73 -93 0
38 -76 -93 0
8 70 93 0
32 -45 -94 0
-27 54 -94 0
-23 -66 -94 0
2 -53 -95 0
5 -54 -95 0
17 -59 95 0
-37 52 -96 0
-6 -60 97 0
14 65 97 0
-21 72 97 0
4 56 -98 0
-38 46 98 0
-14 56 98 0
11 -69 98 0
-22 -75 -99 0
30 49 99 0
-12 52 99 0
20 -53 99 0
33 61 99 0
38 65 99 0
-4 40 -100 0
31 49 -100 0
-28 -56 100 0
-8 66 100 0
-38 66 100 0
-37 41 -101 0
-3 73 -101 0
-19 66 -102 0
11 -71 -102 0
-15 -73 -102 0
17 -58 -103 0
31 -64 103 0
-38 77 -104 0
-7 73 104 0
31 60 -105 0
5 -55 105 0
-18 -66 -106 0
-6 -72 106 0
-16 44 -107 0
17 -48 107 0
30 43 -108 0
11 44 -108 0
-4 -51 -108 0
29 -71 -108 0
-34 41 108 0
-8 -56 108 0
-18 58 108 0
-11 -41 -109 0
24 -51 109 0
25 40 -110 0
-34 55 110 0
22 72 110 0
-7 39 -111 0
-4 -52 -111 0
-34 61 111 0
-16 62 -112 0
-17 63 -112 0
11 -43 112 0
6 -53 112 0
-7 -60 112 0
-3 -50 -113 0
-34 54 -113 0
-13 60 -113 0
12 -51 113 0
5 -75 -114 0
23 52 114 0
